c read Graph
c width = 187
c time = 546 ms
c width = 13
c time = 831 ms
c width = 12
c time = 972 ms
c width = 11
c time = 3601 ms
c width = 11
c time = 4406 ms
s td 185 12 200
b 1 1 2 21
b 2 2 3 21 22
b 3 18 19 39 40
b 4 3 21 22 41
b 5 18 39 40 60
b 6 141 161 162 182
b 7 160 179 180 199
b 8 141 162 182 183
b 9 160 179 198 199
b 10 3 4 5 24
b 11 3 5 23 24 42 61
b 12 5 23 24 42 44 61 63
b 13 5 24 42 44 61 63 82
b 14 5 24 44 61 63 82 101
b 15 61 81 82 101
b 16 5 24 26 44 45 63 82 101
b 17 5 26 44 45 63 66 82 84 85 101
b 18 5 26 45 63 66 82 84 85 101 103
b 19 5 26 45 66 82 84 85 101 103 104
b 20 5 26 45 66 82 85 101 103 104 122
b 21 5 26 45 66 85 101 103 104 122 123
b 22 5 26 45 66 85 101 104 122 123 144 165 186
b 23 101 104 122 123 144 165 186
b 24 101 122 123 144 165 184 186
b 25 165 184 185 186
b 26 101 122 123 144 163 165 184
b 27 144 163 164 165 184
b 28 101 122 123 142 144 163 184
b 29 123 142 143 144 163
b 30 101 122 141 142 163 184
b 31 141 142 163 183 184
b 32 141 142 162 163 183
b 33 101 121 122 141
b 34 5 26 45 66 85 104 123 125 144 165 186
b 35 104 123 124 125 144
b 36 5 26 45 66 85 104 125 144 146 165 186
b 37 5 26 45 66 85 104 125 146 165 167 186
b 38 146 165 166 167 186
b 39 5 26 45 47 66 85 104 125 146 167 186
b 40 5 26 47 66 85 104 106 125 146 167 186
b 41 85 104 105 106 125
b 42 5 26 47 66 85 106 125 127 146 167 186
b 43 106 125 126 127 146
b 44 5 26 47 66 85 106 127 146 148 167 186
b 45 5 26 47 66 85 87 106 127 148 167 186
b 46 66 85 86 87 106
b 47 5 26 47 66 68 87 106 127 148 167 186
b 48 47 66 67 68 87
b 49 5 26 47 68 87 106 108 127 148 167 186
b 50 87 106 107 108 127
b 51 5 26 47 68 87 89 108 127 148 167 186
b 52 68 87 88 89 108
b 53 5 26 47 68 89 108 127 129 148 167 186
b 54 108 127 128 129 148
b 55 5 26 47 68 89 108 110 129 148 167 186
b 56 89 108 109 110 129
b 57 5 26 47 68 89 110 129 148 167 169 186 190
b 58 5 26 47 68 89 110 129 148 150 169 186 190
b 59 5 26 47 68 89 110 129 150 169 171 186 190
b 60 5 26 47 68 89 110 129 131 150 171 190
b 61 110 129 130 131 150
b 62 5 9 26 28 47 68 89 110 131 150 171 190
b 63 9 28 30 47 49 68 89 110 131 150 171 190
b 64 28 30 47 48 49 68 89 110 131 150 171 190
b 65 9 30 49 68 70 89 110 131 150 171 190
b 66 9 30 49 51 70 89 110 131 150 171 190
b 67 9 30 51 70 89 91 110 131 150 171 190
b 68 70 89 90 91 110
b 69 9 30 51 70 72 91 110 131 150 171 190
b 70 51 70 71 72 91
b 71 9 30 51 72 91 110 112 131 150 171 190
b 72 91 110 111 112 131
b 73 9 30 51 72 91 93 112 131 150 171 190
b 74 72 91 92 93 112
b 75 9 13 30 32 51 72 93 112 131 150 171 190
b 76 13 32 33 51 53 72 93 112 131 150 171 190
b 77 13 33 34 51 53 72 93 112 131 150 171 190
b 78 13 34 53 72 74 93 112 131 150 171 190
b 79 53 72 73 74 93
b 80 13 34 53 55 74 93 112 131 150 171 190
b 81 13 34 55 74 93 112 131 150 152 171 190
b 82 131 150 151 152 171
b 83 13 34 55 74 93 112 131 133 152 171 190
b 84 112 131 132 133 152
b 85 13 34 55 74 93 112 133 152 171 173 190 194
b 86 13 34 55 74 93 112 133 152 154 173 190 194
b 87 13 34 55 74 93 112 133 154 173 175 190 194
b 88 154 173 174 175 194
b 89 13 34 55 74 93 112 114 133 154 175 194
b 90 13 34 55 74 93 95 114 133 154 175 194
b 91 13 34 55 74 95 114 133 135 154 175 194
b 92 114 133 135 154 175 194
b 93 114 133 134 135 154
b 94 13 34 55 74 95 114 116 135 154 175 194
b 95 13 34 55 74 95 116 135 154 156 175 194
b 96 135 154 156 175 194
b 97 13 34 55 74 95 116 135 137 156 175 194
b 98 116 135 136 137 156
b 99 135 154 155 156 175
b 100 95 114 115 116 135
b 101 74 93 94 95 114
b 102 93 112 113 114 133
b 103 133 152 153 154 173
b 104 152 171 173 190 192 194
b 105 173 192 193 194
b 106 152 171 172 173 192
b 107 171 190 191 192
b 108 34 53 54 55 74
b 109 32 51 52 53 72
b 110 9 11 13 30 32 51
b 111 11 30 31 32 51
b 112 9 10 11 30
b 113 11 12 13 32
b 114 30 49 50 51 70
b 115 49 68 69 70 89
b 116 9 28 29 30 49
b 117 5 7 9 26 28 47
b 118 7 8 9 28
b 119 5 6 7 26
b 120 7 26 27 28 47
b 121 150 169 170 171 190
b 122 129 148 149 150 169
b 123 148 167 169 186 188 190
b 124 167 186 187 188
b 125 148 167 168 169 188
b 126 169 188 189 190
b 127 127 146 147 148 167
b 128 26 45 46 47 66
b 129 125 144 145 146 165
b 130 82 101 102 103 122
b 131 63 82 83 84 103
b 132 44 45 63 65 66 84 85
b 133 44 63 64 65 84
b 134 5 24 25 26 45
b 135 42 61 62 63 82
b 136 23 42 43 44 63
b 137 3 23 41 42 61
b 138 3 22 23 41 42
b 139 97 116 117 118 137
b 140 13 34 55 74 76 95 116 137 156 175 194
b 141 13 34 55 76 95 97 116 137 156 175 194
b 142 13 34 55 76 97 99 118 120 137 156 175 194
b 143 13 34 55 76 97 116 118 137 156 175 194
b 144 13 34 55 76 97 118 120 137 156 175 194
b 145 99 118 120 137 156 175 194 196
b 146 99 118 120 137 156 175 177 196
b 147 156 175 176 177 196
b 148 99 118 120 137 139 156 177 196
b 149 99 118 119 120 139
b 150 118 120 137 139 156 158 177 196
b 151 118 137 138 139 158
b 152 137 156 157 158 177
b 153 120 139 158 177 196 198
b 154 120 139 158 160 177 198
b 155 120 139 140 160
b 156 139 158 160 177 178 198
b 157 139 158 159 160 178 198
b 158 159 160 178 179 198
b 159 177 196 197 198
b 160 175 194 195 196
b 161 13 17 34 36 55 76 97 99 118 120
b 162 13 15 17 34 36 55
b 163 13 14 15 34
b 164 15 16 17 36
b 165 15 34 35 36 55
b 166 17 36 55 76 78 97 99 118 120
b 167 78 97 98 99 118
b 168 17 36 55 57 76 78 97 99 120
b 169 57 76 77 78 97
b 170 36 55 56 57 76
b 171 17 36 57 78 80 99 120
b 172 80 99 100 120
b 173 17 36 57 59 78 80 99
b 174 17 36 38 57 59 78 80
b 175 17 36 37 38 57
b 176 38 57 58 59 78
b 177 17 38 59 60 80
b 178 17 18 38 59 60
b 179 18 38 39 59 60
b 180 59 78 79 80 99
b 181 55 74 75 76 95
b 182 76 95 96 97 116
b 183 180 199 200
b 184 161 181 182
b 185 19 20 40
1 2
2 4
3 185
3 5
4 138
5 179
6 184
6 8
7 183
7 9
8 32
9 158
10 11
11 137
11 12
12 136
12 13
13 135
13 14
14 16
14 15
16 134
16 17
17 132
17 18
18 131
18 19
19 20
20 130
20 21
21 22
22 34
22 23
23 24
24 26
24 25
26 27
26 28
28 29
28 30
30 33
30 31
31 32
34 35
34 36
36 129
36 37
37 39
37 38
39 128
39 40
40 42
40 41
42 44
42 43
44 127
44 45
45 47
45 46
47 49
47 48
49 51
49 50
51 53
51 52
53 55
53 54
55 57
55 56
57 123
57 58
58 122
58 59
59 121
59 60
60 62
60 61
62 117
62 63
63 116
63 65
63 64
65 115
65 66
66 114
66 67
67 69
67 68
69 71
69 70
71 73
71 72
73 75
73 74
75 110
75 76
76 109
76 77
77 78
78 80
78 79
80 108
80 81
81 83
81 82
83 85
83 84
85 104
85 86
86 103
86 87
87 89
87 88
89 102
89 90
90 101
90 91
91 94
91 92
92 93
94 100
94 95
95 99
95 97
95 96
97 140
97 98
104 107
104 105
104 106
110 113
110 111
110 112
117 118
117 119
117 120
123 126
123 124
123 125
132 133
137 138
139 143
140 181
140 141
141 182
141 143
142 145
142 161
142 144
143 144
145 160
145 146
146 147
146 148
148 149
148 150
150 151
150 152
150 153
153 159
153 154
154 155
154 156
156 157
157 158
161 166
161 162
162 163
162 164
162 165
166 168
166 167
168 170
168 169
168 171
171 172
171 173
173 180
173 174
174 177
174 175
174 176
177 178
178 179
